bcc
1.0
2.832644553238173 0.000000000000000 0.000000000000000
0.000000000000000 2.832644553238173 0.000000000000000
0.000000000000000 0.000000000000000 2.832644553238173
Fe
2
direct
0.000000000000000 0.000000000000000 0.000000000000000 Fe
0.500000000000000 0.500000000000000 0.500000000000000 Fe
